(set-info :Origin "This instance was generated by: BanditFuzz-- an RL fuzzer for SMT solvers" )
(set-info :Author "Joe Scott, Fed Mora, Vijay Ganesh" )
(set-info :Contact "Joe Scott, joseph.scott@uwaterloo.ca")
(set-logic QF_BV)
(declare-const bool_0 Bool)
(declare-const bool_1 Bool)
(declare-const bool_2 Bool)
(declare-const bool_3 Bool)
(declare-const bool_4 Bool)
(declare-const bv_0 (_ BitVec 32))
(declare-const bv_1 (_ BitVec 32))
(declare-const bv_2 (_ BitVec 32))
(declare-const bv_3 (_ BitVec 32))
(declare-const bv_4 (_ BitVec 32))
(assert (bvsge (bvshl (bvadd bv_2 bv_1) (bvxnor #xc1188ae6  bv_4)) (bvudiv (bvnor bv_3 bv_4) (bvashr bv_3 bv_4))))
(assert (bvslt (bvnand (bvnand bv_2 #x52dffe7d ) (bvxnor #x104f51c5  #xe63b0b53 )) (bvmul (bvand bv_4 #x448c120d ) (bvlshr bv_0 #xe26e3599 ))))
(assert (bvslt (bvlshr (bvlshr #xc1c46243  #x53c88c90 ) (bvmul #x7e55ab88  bv_3)) (bvsrem (bvor bv_0 bv_2) (bvnand bv_3 bv_3))))
(assert (bvslt (bvor (bvurem bv_1 #x0838955f ) (bvudiv bv_0 bv_0)) (bvsrem (bvshl #x78f6da69  #x94249d7f ) (bvxor #xbba5dcfd  #x8014130c ))))
(assert (or (bvsle (bvmul bv_1 bv_0) (bvmul #x898bca64  #x67579a60 )) (bvule (bvmul bv_3 bv_4) (bvand #xf6f2d268  #xc11bad48 ))))
(check-sat)
(exit)
